c ind 1 17 18 19 20 21 22 23 24 25 26 27 28 29 30 31 32 0
p cnf 59 132
1 -3 0
2 -3 0
-1 -2 3 0
1 -5 0
2 -5 0
4 -5 0
-1 -2 -4 5 0
1 -7 0
2 -7 0
4 -7 0
6 -7 0
-1 -2 -4 -6 7 0
1 -9 0
2 -9 0
4 -9 0
6 -9 0
8 -9 0
-1 -2 -4 -6 -8 9 0
1 -11 0
2 -11 0
4 -11 0
6 -11 0
8 -11 0
10 -11 0
-1 -2 -4 -6 -8 -10 11 0
1 -13 0
2 -13 0
4 -13 0
6 -13 0
8 -13 0
10 -13 0
12 -13 0
-1 -2 -4 -6 -8 -10 -12 13 0
1 -15 0
2 -15 0
4 -15 0
6 -15 0
8 -15 0
10 -15 0
12 -15 0
14 -15 0
-1 -2 -4 -6 -8 -10 -12 -14 15 0
16 0
-1 17 -33 0
1 -17 -33 0
-1 -17 33 0
1 17 33 0
-33 0
-2 22 -34 0
2 -22 -34 0
-2 -22 34 0
2 22 34 0
-34 0
-4 27 -35 0
4 -27 -35 0
-4 -27 35 0
4 27 35 0
-35 0
-6 32 -36 0
6 -32 -36 0
-6 -32 36 0
6 32 36 0
-36 0
-32 37 0
32 -37 0
-32 -38 0
32 -38 0
32 39 0
-38 39 0
-32 38 -39 0
-8 -39 -40 0
8 39 -40 0
-8 39 40 0
8 -39 40 0
-40 0
-22 41 0
22 -41 0
-22 -42 0
22 -42 0
22 43 0
-42 43 0
-22 42 -43 0
-10 -43 -44 0
10 43 -44 0
-10 43 44 0
10 -43 44 0
-44 0
-17 45 0
17 -45 0
-17 -46 0
17 -46 0
17 47 0
-46 47 0
-17 46 -47 0
-12 -47 -48 0
12 47 -48 0
-12 47 48 0
12 -47 48 0
-48 0
-27 49 0
27 -49 0
-27 -50 0
27 -50 0
27 51 0
-50 51 0
-27 50 -51 0
-14 -51 -52 0
14 51 -52 0
-14 51 52 0
14 -51 52 0
-52 0
1 0
2 0
4 0
6 0
8 0
10 0
12 0
14 0
-53 -55 -57 0
53 55 -57 0
-53 55 57 0
53 -55 57 0
-54 -56 -58 0
54 56 -58 0
-54 56 58 0
54 -56 58 0
-57 -59 0
-58 -59 0
57 58 59 0
-16 59 0
16 -59 0
c __CPROVER_malloc_is_new_array#1 FALSE
c goto_symex::\guard#1 1
c goto_symex::\guard#2 2
c goto_symex::\guard#3 4
c goto_symex::\guard#4 6
c goto_symex::\guard#5 8
c goto_symex::\guard#6 10
c goto_symex::\guard#7 12
c goto_symex::\guard#8 14
c __CPROVER_thread_id!0#1 FALSE FALSE FALSE FALSE FALSE FALSE FALSE FALSE FALSE FALSE FALSE FALSE FALSE FALSE FALSE FALSE FALSE FALSE FALSE FALSE FALSE FALSE FALSE FALSE FALSE FALSE FALSE FALSE FALSE FALSE FALSE FALSE FALSE FALSE FALSE FALSE FALSE FALSE FALSE FALSE FALSE FALSE FALSE FALSE FALSE FALSE FALSE FALSE FALSE FALSE FALSE FALSE FALSE FALSE FALSE FALSE FALSE FALSE FALSE FALSE FALSE FALSE FALSE FALSE
c __CPROVER_rounding_mode!0#1 FALSE FALSE FALSE FALSE FALSE FALSE FALSE FALSE FALSE FALSE FALSE FALSE FALSE FALSE FALSE FALSE FALSE FALSE FALSE FALSE FALSE FALSE FALSE FALSE FALSE FALSE FALSE FALSE FALSE FALSE FALSE FALSE
c __CPROVER_pipe_count#1 FALSE FALSE FALSE FALSE FALSE FALSE FALSE FALSE FALSE FALSE FALSE FALSE FALSE FALSE FALSE FALSE FALSE FALSE FALSE FALSE FALSE FALSE FALSE FALSE FALSE FALSE FALSE FALSE FALSE FALSE FALSE FALSE
c __CPROVER_deallocated#1 FALSE FALSE FALSE FALSE FALSE FALSE FALSE FALSE FALSE FALSE FALSE FALSE FALSE FALSE FALSE FALSE FALSE FALSE FALSE FALSE FALSE FALSE FALSE FALSE FALSE FALSE FALSE FALSE FALSE FALSE FALSE FALSE FALSE FALSE FALSE FALSE FALSE FALSE FALSE FALSE FALSE FALSE FALSE FALSE FALSE FALSE FALSE FALSE FALSE FALSE FALSE FALSE FALSE FALSE FALSE FALSE FALSE FALSE FALSE FALSE FALSE FALSE FALSE FALSE
c check::1::x!0@1#1 17 18 19 20 21 22 23 24 25 26 27 28 29 30 31 32
c __CPROVER_dead_object#1 FALSE FALSE FALSE FALSE FALSE FALSE FALSE FALSE FALSE FALSE FALSE FALSE FALSE FALSE FALSE FALSE FALSE FALSE FALSE FALSE FALSE FALSE FALSE FALSE FALSE FALSE FALSE FALSE FALSE FALSE FALSE FALSE FALSE FALSE FALSE FALSE FALSE FALSE FALSE FALSE FALSE FALSE FALSE FALSE FALSE FALSE FALSE FALSE FALSE FALSE FALSE FALSE FALSE FALSE FALSE FALSE FALSE FALSE FALSE FALSE FALSE FALSE FALSE FALSE
c __CPROVER_next_thread_id#1 FALSE FALSE FALSE FALSE FALSE FALSE FALSE FALSE FALSE FALSE FALSE FALSE FALSE FALSE FALSE FALSE FALSE FALSE FALSE FALSE FALSE FALSE FALSE FALSE FALSE FALSE FALSE FALSE FALSE FALSE FALSE FALSE FALSE FALSE FALSE FALSE FALSE FALSE FALSE FALSE FALSE FALSE FALSE FALSE FALSE FALSE FALSE FALSE FALSE FALSE FALSE FALSE FALSE FALSE FALSE FALSE FALSE FALSE FALSE FALSE FALSE FALSE FALSE FALSE
c __CPROVER_malloc_object#1 FALSE FALSE FALSE FALSE FALSE FALSE FALSE FALSE FALSE FALSE FALSE FALSE FALSE FALSE FALSE FALSE FALSE FALSE FALSE FALSE FALSE FALSE FALSE FALSE FALSE FALSE FALSE FALSE FALSE FALSE FALSE FALSE FALSE FALSE FALSE FALSE FALSE FALSE FALSE FALSE FALSE FALSE FALSE FALSE FALSE FALSE FALSE FALSE FALSE FALSE FALSE FALSE FALSE FALSE FALSE FALSE FALSE FALSE FALSE FALSE FALSE FALSE FALSE FALSE
c __CPROVER_malloc_size#1 FALSE FALSE FALSE FALSE FALSE FALSE FALSE FALSE FALSE FALSE FALSE FALSE FALSE FALSE FALSE FALSE FALSE FALSE FALSE FALSE FALSE FALSE FALSE FALSE FALSE FALSE FALSE FALSE FALSE FALSE FALSE FALSE FALSE FALSE FALSE FALSE FALSE FALSE FALSE FALSE FALSE FALSE FALSE FALSE FALSE FALSE FALSE FALSE FALSE FALSE FALSE FALSE FALSE FALSE FALSE FALSE FALSE FALSE FALSE FALSE FALSE FALSE FALSE FALSE
c __CPROVER_memory_leak#1 FALSE FALSE FALSE FALSE FALSE FALSE FALSE FALSE FALSE FALSE FALSE FALSE FALSE FALSE FALSE FALSE FALSE FALSE FALSE FALSE FALSE FALSE FALSE FALSE FALSE FALSE FALSE FALSE FALSE FALSE FALSE FALSE FALSE FALSE FALSE FALSE FALSE FALSE FALSE FALSE FALSE FALSE FALSE FALSE FALSE FALSE FALSE FALSE FALSE FALSE FALSE FALSE FALSE FALSE FALSE FALSE FALSE FALSE FALSE FALSE FALSE FALSE FALSE FALSE
